7117.0
1, 12, 20, 26, 29, 46, 74, 76, 85, 89, 96, 106, 113, 120, 147, 157, 163, 164, 169, 203, 204, 211, 233, 242, 265, 268, 271, 273, 274, 292, 294, 302, 307, 323, 343, 375, 384, 391, 422, 423, 432, 472, 475, 483, 490, 498